# Random Circle Problem
param d := 0.05; 
param n := 10; 
param radius := 2.00; 
param v0 := 
1 5.91
2 5.89
3 5.30
4 5.62
5 5.14
6 5.57
7 4.87
8 5.42
9 5.60
10 5.42
;
param cap := 
1 3.01287
2 3.78074
3 4.31071
4 5.38392
5 5.81352
6 5.97068
7 0.27232
8 1.42007
9 2.26170
10 2.45457
;
param x0 := 
1 2.00
2 1.62
3 0.62
4 -0.62
5 -1.62
6 -2.00
7 -1.62
8 -0.62
9 0.62
10 1.62
;
param y0 := 
1 -0.00
2 1.18
3 1.90
4 1.90
5 1.18
6 0.00
7 -1.18
8 -1.90
9 -1.90
10 -1.18
;
